70 170969
46 43 35 55 68 50 57 15 42 16 44 3 11 7 38 17 5 70 45 10 30 24 37 12 51 62 19 1 20 22 66 9 52 6 34 32 41 26 53 23 31 69 59 13 64 60 4 47 48 8 14 27 36 28 29 54 65 56 40 18 39 63 58 2 61 25 21 67 49 33 
